(set-info :smt-lib-version 2.6)
(set-logic QF_LRA)
(set-info :source |
The Formal Verification of a Reintegration Protocol. Author: Lee Pike. Website: http://www.cs.indiana.edu/~lepike/pub_pages/emsoft.html.

This benchmark was automatically translated into SMT-LIB format from
CVC format using CVC Lite
|)
(set-info :category "industrial")
(set-info :status unsat)
(declare-fun x_0 () Real)
(declare-fun x_1 () Real)
(declare-fun x_2 () Bool)
(declare-fun x_3 () Bool)
(declare-fun x_4 () Bool)
(declare-fun x_5 () Bool)
(declare-fun x_6 () Real)
(declare-fun x_7 () Real)
(declare-fun x_8 () Real)
(declare-fun x_9 () Real)
(declare-fun x_10 () Real)
(declare-fun x_11 () Real)
(declare-fun x_12 () Bool)
(declare-fun x_13 () Bool)
(declare-fun x_14 () Bool)
(declare-fun x_15 () Bool)
(declare-fun x_16 () Bool)
(declare-fun x_17 () Bool)
(declare-fun x_18 () Bool)
(declare-fun x_19 () Bool)
(declare-fun x_20 () Real)
(declare-fun x_21 () Real)
(declare-fun x_22 () Real)
(declare-fun x_23 () Bool)
(declare-fun x_24 () Real)
(declare-fun x_25 () Real)
(declare-fun x_26 () Real)
(declare-fun x_27 () Real)
(declare-fun x_28 () Bool)
(declare-fun x_29 () Real)
(declare-fun x_30 () Bool)
(declare-fun x_31 () Bool)
(declare-fun x_32 () Bool)
(declare-fun x_33 () Bool)
(declare-fun x_34 () Bool)
(declare-fun x_35 () Bool)
(declare-fun x_36 () Real)
(declare-fun x_37 () Real)
(declare-fun x_38 () Real)
(declare-fun x_39 () Real)
(declare-fun x_40 () Bool)
(declare-fun x_41 () Bool)
(declare-fun x_42 () Bool)
(declare-fun x_43 () Bool)
(declare-fun x_44 () Bool)
(declare-fun x_45 () Real)
(declare-fun x_46 () Real)
(declare-fun x_47 () Real)
(declare-fun x_48 () Real)
(declare-fun x_49 () Real)
(declare-fun x_50 () Real)
(declare-fun x_51 () Real)
(declare-fun x_52 () Real)
(declare-fun x_53 () Real)
(declare-fun x_54 () Bool)
(declare-fun x_55 () Real)
(declare-fun x_56 () Real)
(declare-fun x_57 () Real)
(declare-fun x_58 () Real)
(declare-fun x_59 () Bool)
(declare-fun x_60 () Real)
(declare-fun x_61 () Bool)
(declare-fun x_62 () Bool)
(declare-fun x_63 () Bool)
(declare-fun x_64 () Bool)
(declare-fun x_65 () Bool)
(declare-fun x_66 () Bool)
(declare-fun x_67 () Real)
(declare-fun x_68 () Real)
(declare-fun x_69 () Real)
(declare-fun x_70 () Real)
(declare-fun x_71 () Bool)
(declare-fun x_72 () Bool)
(declare-fun x_73 () Bool)
(declare-fun x_74 () Bool)
(declare-fun x_75 () Bool)
(declare-fun x_76 () Real)
(declare-fun x_77 () Real)
(declare-fun x_78 () Real)
(declare-fun x_79 () Real)
(declare-fun x_80 () Real)
(declare-fun x_81 () Real)
(declare-fun x_82 () Real)
(declare-fun x_83 () Real)
(declare-fun x_84 () Real)
(declare-fun x_85 () Bool)
(declare-fun x_86 () Real)
(declare-fun x_87 () Real)
(declare-fun x_88 () Real)
(declare-fun x_89 () Real)
(declare-fun x_90 () Bool)
(declare-fun x_91 () Real)
(declare-fun x_92 () Bool)
(declare-fun x_93 () Bool)
(declare-fun x_94 () Bool)
(declare-fun x_95 () Bool)
(declare-fun x_96 () Bool)
(declare-fun x_97 () Bool)
(declare-fun x_98 () Real)
(declare-fun x_99 () Real)
(declare-fun x_100 () Real)
(declare-fun x_101 () Real)
(declare-fun x_102 () Bool)
(declare-fun x_103 () Bool)
(declare-fun x_104 () Bool)
(declare-fun x_105 () Bool)
(declare-fun x_106 () Bool)
(declare-fun x_107 () Real)
(declare-fun x_108 () Real)
(declare-fun x_109 () Real)
(declare-fun x_110 () Real)
(declare-fun x_111 () Real)
(declare-fun x_112 () Real)
(declare-fun x_113 () Real)
(declare-fun x_114 () Real)
(declare-fun x_115 () Real)
(declare-fun x_116 () Bool)
(declare-fun x_117 () Real)
(declare-fun x_118 () Real)
(declare-fun x_119 () Real)
(assert (let ((?v_3 (- x_0 x_1)) (?v_171 (+ x_1 x_9)) (?v_214 (<= x_0 x_27)) (?v_194 (= x_28 x_16)) (?v_144 (= x_29 0)) (?v_157 (< x_0 x_11)) (?v_179 (= x_27 x_0)) (?v_204 (= x_29 2)) (?v_206 (= x_30 x_5)) (?v_207 (and (= x_31 x_3) (= x_32 x_4))) (?v_192 (= x_33 x_19)) (?v_193 (and (= x_34 x_17) (= x_35 x_18))) (?v_208 (= x_36 x_8)) (?v_209 (and (= x_37 x_6) (= x_38 x_7))) (?v_166 (= x_39 x_11)) (?v_191 (= x_40 x_2)) (?v_189 (= x_41 x_15)) (?v_190 (and (= x_42 x_13) (= x_43 x_14))) (?v_210 (= x_44 x_12)) (?v_215 (- x_45 x_1)) (?v_145 (= x_29 1)) (?v_186 (+ x_9 x_1)) (?v_182 (<= x_24 x_27))) (let ((?v_188 (= x_30 (or x_5 (and ?v_182 x_15)))) (?v_175 (<= x_21 ?v_171)) (?v_177 (<= x_22 ?v_171)) (?v_174 (<= x_21 x_9)) (?v_176 (<= x_22 x_9)) (?v_151 (not x_3)) (?v_196 (< x_21 x_0)) (?v_197 (= x_27 x_21)) (?v_152 (not x_4)) (?v_199 (< x_22 x_0)) (?v_200 (= x_27 x_22)) (?v_153 (not x_5)) (?v_216 (not ?v_214)) (?v_168 (not x_13)) (?v_170 (not x_14)) (?v_172 (not x_15))) (let ((?v_167 (not ?v_174))) (let ((?v_180 (and ?v_167 (<= x_21 x_27))) (?v_169 (not ?v_176))) (let ((?v_181 (and ?v_169 (<= x_22 x_27)))) (let ((?v_187 (and (= x_31 (or x_3 (and ?v_180 x_13))) (= x_32 (or x_4 (and ?v_181 x_14))))) (?v_178 (<= x_24 ?v_171)) (?v_202 (< x_24 x_0)) (?v_203 (= x_27 x_24)) (?v_183 (not ?v_175)) (?v_184 (not ?v_177)) (?v_4 (not (<= x_24 x_9)))) (let ((?v_7 (and ?v_4 ?v_182)) (?v_6 (not (<= x_25 x_9)))) (let ((?v_8 (and ?v_6 (<= x_25 x_27))) (?v_185 (not ?v_178)) (?v_105 (+ x_1 x_27)) (?v_146 (<= x_45 x_58)) (?v_130 (= x_59 x_28)) (?v_82 (= x_60 0)) (?v_90 (< x_45 x_39)) (?v_115 (= x_58 x_45)) (?v_137 (= x_60 2)) (?v_139 (= x_61 x_30)) (?v_140 (and (= x_62 x_31) (= x_63 x_32))) (?v_128 (= x_64 x_33)) (?v_129 (and (= x_65 x_34) (= x_66 x_35))) (?v_141 (= x_67 x_36)) (?v_142 (and (= x_68 x_37) (= x_69 x_38))) (?v_100 (= x_70 x_39)) (?v_127 (= x_71 x_40)) (?v_125 (= x_72 x_41)) (?v_126 (and (= x_73 x_42) (= x_74 x_43))) (?v_143 (= x_75 x_44)) (?v_147 (- x_76 x_1)) (?v_83 (= x_60 1)) (?v_122 (+ x_27 x_1)) (?v_118 (<= x_55 x_58))) (let ((?v_124 (= x_61 (or x_30 (and ?v_118 x_41)))) (?v_108 (<= x_52 ?v_105)) (?v_110 (<= x_53 ?v_105)) (?v_107 (<= x_52 x_27)) (?v_109 (<= x_53 x_27)) (?v_102 (not x_31)) (?v_131 (< x_52 x_45)) (?v_132 (= x_58 x_52)) (?v_104 (not x_32)) (?v_133 (< x_53 x_45)) (?v_134 (= x_58 x_53)) (?v_93 (not x_30)) (?v_148 (not ?v_146)) (?v_112 (not x_42)) (?v_113 (not x_43)) (?v_114 (not x_41))) (let ((?v_101 (not ?v_107))) (let ((?v_116 (and ?v_101 (<= x_52 x_58))) (?v_103 (not ?v_109))) (let ((?v_117 (and ?v_103 (<= x_53 x_58)))) (let ((?v_123 (and (= x_62 (or x_31 (and ?v_116 x_42))) (= x_63 (or x_32 (and ?v_117 x_43))))) (?v_111 (<= x_55 ?v_105)) (?v_135 (< x_55 x_45)) (?v_136 (= x_58 x_55)) (?v_119 (not ?v_108)) (?v_120 (not ?v_110)) (?v_217 (not (<= x_55 x_27)))) (let ((?v_13 (and ?v_217 ?v_118)) (?v_218 (not (<= x_56 x_27)))) (let ((?v_14 (and ?v_218 (<= x_56 x_58))) (?v_121 (not ?v_111)) (?v_43 (+ x_1 x_58)) (?v_84 (<= x_76 x_89)) (?v_68 (= x_90 x_59)) (?v_27 (= x_91 0)) (?v_28 (< x_76 x_70)) (?v_52 (= x_89 x_76)) (?v_75 (= x_91 2)) (?v_77 (= x_92 x_61)) (?v_78 (and (= x_93 x_62) (= x_94 x_63))) (?v_66 (= x_95 x_64)) (?v_67 (and (= x_96 x_65) (= x_97 x_66))) (?v_79 (= x_98 x_67)) (?v_80 (and (= x_99 x_68) (= x_100 x_69))) (?v_38 (= x_101 x_70)) (?v_65 (= x_102 x_71)) (?v_63 (= x_103 x_72)) (?v_64 (and (= x_104 x_73) (= x_105 x_74))) (?v_81 (= x_106 x_75)) (?v_85 (- x_107 x_1)) (?v_56 (= x_91 1)) (?v_60 (+ x_58 x_1)) (?v_55 (<= x_86 x_89))) (let ((?v_62 (= x_92 (or x_61 (and ?v_55 x_72)))) (?v_45 (<= x_83 ?v_43)) (?v_47 (<= x_84 ?v_43)) (?v_44 (<= x_83 x_58)) (?v_46 (<= x_84 x_58)) (?v_40 (not x_62)) (?v_69 (< x_83 x_76)) (?v_70 (= x_89 x_83)) (?v_42 (not x_63)) (?v_71 (< x_84 x_76)) (?v_72 (= x_89 x_84)) (?v_31 (not x_61)) (?v_86 (not ?v_84)) (?v_49 (not x_73)) (?v_50 (not x_74)) (?v_51 (not x_72))) (let ((?v_39 (not ?v_44))) (let ((?v_53 (and ?v_39 (<= x_83 x_89))) (?v_41 (not ?v_46))) (let ((?v_54 (and ?v_41 (<= x_84 x_89)))) (let ((?v_61 (and (= x_93 (or x_62 (and ?v_53 x_73))) (= x_94 (or x_63 (and ?v_54 x_74))))) (?v_48 (<= x_86 ?v_43)) (?v_73 (< x_86 x_76)) (?v_74 (= x_89 x_86)) (?v_57 (not ?v_45)) (?v_58 (not ?v_47)) (?v_149 (not (<= x_86 x_58)))) (let ((?v_19 (and ?v_149 ?v_55)) (?v_150 (not (<= x_87 x_58)))) (let ((?v_20 (and ?v_150 (<= x_87 x_89))) (?v_59 (not ?v_48)) (?v_0 (= x_6 0)) (?v_1 (= x_7 0)) (?v_2 (= x_8 0)) (?v_165 (= x_36 0)) (?v_156 (= x_36 3)) (?v_161 (= x_37 0)) (?v_154 (= x_37 3)) (?v_163 (= x_38 0)) (?v_155 (= x_38 3)) (?v_99 (= x_67 0)) (?v_89 (= x_67 3)) (?v_95 (= x_68 0)) (?v_87 (= x_68 3)) (?v_97 (= x_69 0)) (?v_88 (= x_69 3)) (?v_37 (= x_98 0)) (?v_26 (= x_98 3)) (?v_33 (= x_99 0)) (?v_24 (= x_99 3)) (?v_35 (= x_100 0)) (?v_25 (= x_100 3)) (?v_212 (not x_2)) (?v_195 (not x_17)) (?v_198 (not x_18)) (?v_201 (not x_19)) (?v_211 (= x_20 0)) (?v_9 (and (not (<= x_26 x_9)) (<= x_26 x_27))) (?v_15 (and (not (<= x_57 x_27)) (<= x_57 x_58))) (?v_21 (and (not (<= x_88 x_58)) (<= x_88 x_89))) (?v_29 (= x_99 (ite ?v_40 (ite (and ?v_53 (< x_68 3)) (+ x_68 1) x_68) x_68))) (?v_30 (= x_100 (ite ?v_42 (ite (and ?v_54 (< x_69 3)) (+ x_69 1) x_69) x_69)))) (let ((?v_32 (or x_62 ?v_24)) (?v_34 (or x_63 ?v_25)) (?v_36 (or x_61 ?v_26)) (?v_106 (not x_75)) (?v_91 (= x_68 (ite ?v_102 (ite (and ?v_116 (< x_37 3)) (+ x_37 1) x_37) x_37))) (?v_92 (= x_69 (ite ?v_104 (ite (and ?v_117 (< x_38 3)) (+ x_38 1) x_38) x_38))) (?v_94 (or x_31 ?v_87)) (?v_96 (or x_32 ?v_88)) (?v_98 (or x_30 ?v_89)) (?v_173 (not x_44)) (?v_158 (= x_37 (ite ?v_151 (ite (and ?v_180 (< x_6 3)) (+ x_6 1) x_6) x_6))) (?v_159 (= x_38 (ite ?v_152 (ite (and ?v_181 (< x_7 3)) (+ x_7 1) x_7) x_7))) (?v_160 (or x_3 ?v_154)) (?v_162 (or x_4 ?v_155)) (?v_164 (or x_5 ?v_156)) (?v_213 (= x_20 1)) (?v_5 (ite ?v_7 2 1)) (?v_10 (ite ?v_7 3 2)) (?v_11 (ite ?v_7 1 0)) (?v_12 (ite ?v_13 2 1)) (?v_16 (ite ?v_13 3 2)) (?v_17 (ite ?v_13 1 0)) (?v_18 (ite ?v_19 2 1)) (?v_22 (ite ?v_19 3 2)) (?v_23 (ite ?v_19 1 0)) (?v_76 (<= (ite x_64 (ite x_66 (ite x_65 3 2) x_108) (ite x_66 x_108 (ite x_65 1 0))) (* (* (ite x_61 (ite x_63 (ite x_62 0 1) x_109) (ite x_63 x_109 (ite x_62 2 3))) 1) (/ 1 2)))) (?v_138 (<= (ite x_33 (ite x_35 (ite x_34 3 2) x_77) (ite x_35 x_77 (ite x_34 1 0))) (* (* (ite x_30 (ite x_32 (ite x_31 0 1) x_78) (ite x_32 x_78 (ite x_31 2 3))) 1) (/ 1 2)))) (?v_205 (<= (ite x_19 (ite x_18 (ite x_17 3 2) x_46) (ite x_18 x_46 (ite x_17 1 0))) (* (* (ite x_5 (ite x_4 (ite x_3 0 1) x_47) (ite x_4 x_47 (ite x_3 2 3))) 1) (/ 1 2))))) (and (and (and (and (and (and (and (and (and (and (and (and (and (and (and (and (and (and (and (and (and (and (and (and (and (and (and (and (and (and (and (and (and (and (and (and (and (and (and (and (and (and (and (and (and (and (and (and (and (and (and (and (and (and (and (and (and (and (and (and (and (and (and (and (and (and (and (and (and (and (and (and (and (and (and (and (and (and (and (and (and (and (and (and (and (and (and (and (and (and (and (and (and (and (and (and (and (and (and (and (and (and (and (and (and (and (and (and (and (and (and (and (and (and (and (and (and (and (and (and (and (and (and (and (and (and (and (and (and (and (and (and (and (and (and (and (and (and (and (and (and (and (and (and (and (<= x_91 2) (>= x_91 0)) (<= x_60 2)) (>= x_60 0)) (<= x_29 2)) (>= x_29 0)) (<= x_20 2)) (>= x_20 0)) (>= x_0 0)) (> x_1 0)) (>= x_1 0)) (or (or (or ?v_0 (= x_6 1)) (= x_6 2)) (= x_6 3))) (not (< x_6 0))) (<= x_6 3)) (or (or (or ?v_1 (= x_7 1)) (= x_7 2)) (= x_7 3))) (not (< x_7 0))) (<= x_7 3)) (or (or (or ?v_2 (= x_8 1)) (= x_8 2)) (= x_8 3))) (not (< x_8 0))) (<= x_8 3)) (>= x_9 0)) (not (<= x_10 (* x_1 3)))) (>= x_10 0)) (>= x_11 0)) (>= x_21 0)) (>= x_22 0)) (>= x_24 0)) (>= x_25 0)) (>= x_26 0)) (>= x_27 0)) (or (or (or ?v_165 (= x_36 1)) (= x_36 2)) ?v_156)) (not (< x_36 0))) (<= x_36 3)) (or (or (or ?v_161 (= x_37 1)) (= x_37 2)) ?v_154)) (not (< x_37 0))) (<= x_37 3)) (or (or (or ?v_163 (= x_38 1)) (= x_38 2)) ?v_155)) (not (< x_38 0))) (<= x_38 3)) (>= x_39 0)) (>= x_45 0)) (>= x_52 0)) (>= x_53 0)) (>= x_55 0)) (>= x_56 0)) (>= x_57 0)) (>= x_58 0)) (or (or (or ?v_99 (= x_67 1)) (= x_67 2)) ?v_89)) (not (< x_67 0))) (<= x_67 3)) (or (or (or ?v_95 (= x_68 1)) (= x_68 2)) ?v_87)) (not (< x_68 0))) (<= x_68 3)) (or (or (or ?v_97 (= x_69 1)) (= x_69 2)) ?v_88)) (not (< x_69 0))) (<= x_69 3)) (>= x_70 0)) (>= x_76 0)) (>= x_83 0)) (>= x_84 0)) (>= x_86 0)) (>= x_87 0)) (>= x_88 0)) (>= x_89 0)) (or (or (or ?v_37 (= x_98 1)) (= x_98 2)) ?v_26)) (not (< x_98 0))) (<= x_98 3)) (or (or (or ?v_33 (= x_99 1)) (= x_99 2)) ?v_24)) (not (< x_99 0))) (<= x_99 3)) (or (or (or ?v_35 (= x_100 1)) (= x_100 2)) ?v_25)) (not (< x_100 0))) (<= x_100 3)) (>= x_101 0)) (>= x_107 0)) (>= x_114 0)) (>= x_115 0)) (>= x_117 0)) (>= x_118 0)) (>= x_119 0)) ?v_212) ?v_151) ?v_152) ?v_153) ?v_0) ?v_1) ?v_2) (not (< x_9 0))) (< x_9 x_10)) (= x_11 (+ (+ x_9 x_10) x_1))) x_12) ?v_168) ?v_170) ?v_172) x_16) ?v_195) ?v_198) ?v_201) ?v_211) (not (<= x_0 x_21))) (not (<= x_21 ?v_3))) (not (<= x_0 x_22))) (not (<= x_22 ?v_3))) (= x_0 (ite (not (< x_9 x_1)) (+ x_10 x_1) x_1))) (not x_23)) ?v_4) ?v_6) (< x_24 x_25)) (< x_25 x_26)) (= x_46 (ite x_17 2 1))) (= x_47 (ite x_3 1 2))) (= x_48 ?v_5)) (= x_49 ?v_5)) (= x_50 (+ (ite ?v_9 (ite ?v_8 ?v_10 x_48) (ite ?v_8 x_48 ?v_11)) x_8))) (= x_51 (+ (ite ?v_9 (ite ?v_8 ?v_10 x_49) (ite ?v_8 x_49 ?v_11)) x_8))) (= x_77 (ite x_34 2 1))) (= x_78 (ite x_31 1 2))) (= x_79 ?v_12)) (= x_80 ?v_12)) (= x_81 (+ (ite ?v_15 (ite ?v_14 ?v_16 x_79) (ite ?v_14 x_79 ?v_17)) x_36))) (= x_82 (+ (ite ?v_15 (ite ?v_14 ?v_16 x_80) (ite ?v_14 x_80 ?v_17)) x_36))) (= x_108 (ite x_65 2 1))) (= x_109 (ite x_62 1 2))) (= x_110 ?v_18)) (= x_111 ?v_18)) (= x_112 (+ (ite ?v_21 (ite ?v_20 ?v_22 x_110) (ite ?v_20 x_110 ?v_23)) x_67))) (= x_113 (+ (ite ?v_21 (ite ?v_20 ?v_22 x_111) (ite ?v_20 x_111 ?v_23)) x_67))) (or (or (and (and (and (and (and (and (or (and (and (and (and (and (and (and (and (and (and ?v_27 ?v_28) ?v_52) ?v_29) ?v_30) (= x_98 (ite ?v_31 (ite (not (< x_112 3)) 3 x_112) x_67))) (= x_93 ?v_32)) (= x_94 ?v_34)) (= x_92 ?v_36)) ?v_65) ?v_38) (and (and (and (and (and (and (and (and (and (and ?v_27 (not ?v_28)) x_102) (= x_89 x_70)) ?v_29) ?v_30) (= x_98 (ite ?v_31 (ite (not (< x_113 3)) 3 x_113) x_67))) (= x_93 (or ?v_32 ?v_33))) (= x_94 (or ?v_34 ?v_35))) (= x_92 (or ?v_36 ?v_37))) ?v_38)) ?v_63) ?v_64) ?v_81) ?v_66) ?v_67) ?v_68) (and (and (and (and (and (and (and (or (and (and (and (and (and (and (and (and (and (and (and ?v_56 (or (or (and (and (and ?v_39 ?v_40) ?v_49) ?v_45) (and (and (and ?v_41 ?v_42) ?v_50) ?v_47)) (and (and ?v_31 ?v_51) ?v_48))) (not x_106)) (or (or (or (or ?v_44 ?v_57) x_73) x_62) (not (< x_89 x_83)))) (or (or (or (or ?v_46 ?v_58) x_74) x_63) (not (< x_89 x_84)))) (or (or (or ?v_59 x_72) x_61) (not (< x_89 x_86)))) (or (or (or (and (and (and (and ?v_49 ?v_40) ?v_45) ?v_69) ?v_70) (and (and (and (and ?v_50 ?v_42) ?v_47) ?v_71) ?v_72)) (and (and (and (and ?v_51 ?v_31) ?v_48) ?v_73) ?v_74)) (and (< x_76 ?v_60) ?v_52))) (= x_104 (or x_73 ?v_53))) (= x_105 (or x_74 ?v_54))) (= x_103 (or x_72 ?v_55))) ?v_61) ?v_62) (and (and (and (and (and (and (and (and (and ?v_56 (or (or (or ?v_44 x_73) x_62) ?v_57)) (or (or (or ?v_46 x_74) x_63) ?v_58)) (or (or x_72 x_61) ?v_59)) x_106) (= x_89 ?v_60)) ?v_61) ?v_62) ?v_63) ?v_64)) ?v_79) ?v_80) ?v_38) ?v_65) ?v_66) ?v_67) ?v_68)) (and (and (and (and (and (and (and (or (and (and (and (and (and (and (and (and (and (and (and ?v_75 ?v_76) (not x_90)) (or (or (or ?v_44 x_65) x_62) (<= x_89 x_83))) (or (or (or ?v_46 x_66) x_63) (<= x_89 x_84))) (or (or x_64 x_61) (<= x_89 x_86))) (or (or (or (and (and (and (and (not x_65) ?v_40) (< x_58 x_83)) ?v_69) ?v_70) (and (and (and (and (not x_66) ?v_42) (< x_58 x_84)) ?v_71) ?v_72)) (and (and (and (not x_64) ?v_31) ?v_73) ?v_74)) ?v_52)) (= x_96 (or x_65 (= x_83 x_89)))) (= x_97 (or x_66 (= x_84 x_89)))) (= x_95 (or x_64 (= x_86 x_89)))) ?v_77) ?v_78) (and (and (and (and (and (and (and ?v_75 (not ?v_76)) x_90) ?v_77) ?v_78) (= x_89 x_58)) ?v_66) ?v_67)) ?v_79) ?v_80) ?v_38) ?v_65) ?v_63) ?v_64) ?v_81))) (or (or (and ?v_82 (= x_91 (ite (not x_71) x_60 1))) (and ?v_83 (= x_91 (ite ?v_106 x_60 2)))) (and (and (not ?v_82) (not ?v_83)) (= x_91 x_60)))) (or (and (and ?v_84 (not (<= x_107 x_114))) (not (<= x_114 ?v_85))) (and ?v_86 (= x_114 x_83)))) (or (and (and ?v_84 (not (<= x_107 x_115))) (not (<= x_115 ?v_85))) (and ?v_86 (= x_115 x_84)))) (or (and (and ?v_84 (= x_107 (+ x_76 x_10))) x_116) (and (and ?v_86 (not x_116)) (= x_107 x_76)))) (or (and (and (and (and ?v_55 (not (<= x_117 x_89))) (not (<= x_118 x_89))) (< x_117 x_118)) (< x_118 x_119)) (and (and (and (not ?v_55) (= x_117 x_86)) (= x_118 x_87)) (= x_119 x_88)))) (or (or (and (and (and (and (and (and (or (and (and (and (and (and (and (and (and (and (and ?v_82 ?v_90) ?v_115) ?v_91) ?v_92) (= x_67 (ite ?v_93 (ite (not (< x_81 3)) 3 x_81) x_36))) (= x_62 ?v_94)) (= x_63 ?v_96)) (= x_61 ?v_98)) ?v_127) ?v_100) (and (and (and (and (and (and (and (and (and (and ?v_82 (not ?v_90)) x_71) (= x_58 x_39)) ?v_91) ?v_92) (= x_67 (ite ?v_93 (ite (not (< x_82 3)) 3 x_82) x_36))) (= x_62 (or ?v_94 ?v_95))) (= x_63 (or ?v_96 ?v_97))) (= x_61 (or ?v_98 ?v_99))) ?v_100)) ?v_125) ?v_126) ?v_143) ?v_128) ?v_129) ?v_130) (and (and (and (and (and (and (and (or (and (and (and (and (and (and (and (and (and (and (and ?v_83 (or (or (and (and (and ?v_101 ?v_102) ?v_112) ?v_108) (and (and (and ?v_103 ?v_104) ?v_113) ?v_110)) (and (and ?v_93 ?v_114) ?v_111))) ?v_106) (or (or (or (or ?v_107 ?v_119) x_42) x_31) (not (< x_58 x_52)))) (or (or (or (or ?v_109 ?v_120) x_43) x_32) (not (< x_58 x_53)))) (or (or (or ?v_121 x_41) x_30) (not (< x_58 x_55)))) (or (or (or (and (and (and (and ?v_112 ?v_102) ?v_108) ?v_131) ?v_132) (and (and (and (and ?v_113 ?v_104) ?v_110) ?v_133) ?v_134)) (and (and (and (and ?v_114 ?v_93) ?v_111) ?v_135) ?v_136)) (and (< x_45 ?v_122) ?v_115))) (= x_73 (or x_42 ?v_116))) (= x_74 (or x_43 ?v_117))) (= x_72 (or x_41 ?v_118))) ?v_123) ?v_124) (and (and (and (and (and (and (and (and (and ?v_83 (or (or (or ?v_107 x_42) x_31) ?v_119)) (or (or (or ?v_109 x_43) x_32) ?v_120)) (or (or x_41 x_30) ?v_121)) x_75) (= x_58 ?v_122)) ?v_123) ?v_124) ?v_125) ?v_126)) ?v_141) ?v_142) ?v_100) ?v_127) ?v_128) ?v_129) ?v_130)) (and (and (and (and (and (and (and (or (and (and (and (and (and (and (and (and (and (and (and ?v_137 ?v_138) (not x_59)) (or (or (or ?v_107 x_34) x_31) (<= x_58 x_52))) (or (or (or ?v_109 x_35) x_32) (<= x_58 x_53))) (or (or x_33 x_30) (<= x_58 x_55))) (or (or (or (and (and (and (and (not x_34) ?v_102) (< x_27 x_52)) ?v_131) ?v_132) (and (and (and (and (not x_35) ?v_104) (< x_27 x_53)) ?v_133) ?v_134)) (and (and (and (not x_33) ?v_93) ?v_135) ?v_136)) ?v_115)) (= x_65 (or x_34 (= x_52 x_58)))) (= x_66 (or x_35 (= x_53 x_58)))) (= x_64 (or x_33 (= x_55 x_58)))) ?v_139) ?v_140) (and (and (and (and (and (and (and ?v_137 (not ?v_138)) x_59) ?v_139) ?v_140) (= x_58 x_27)) ?v_128) ?v_129)) ?v_141) ?v_142) ?v_100) ?v_127) ?v_125) ?v_126) ?v_143))) (or (or (and ?v_144 (= x_60 (ite (not x_40) x_29 1))) (and ?v_145 (= x_60 (ite ?v_173 x_29 2)))) (and (and (not ?v_144) (not ?v_145)) (= x_60 x_29)))) (or (and (and ?v_146 (not (<= x_76 x_83))) (not (<= x_83 ?v_147))) (and ?v_148 (= x_83 x_52)))) (or (and (and ?v_146 (not (<= x_76 x_84))) (not (<= x_84 ?v_147))) (and ?v_148 (= x_84 x_53)))) (or (and (and ?v_146 (= x_76 (+ x_45 x_10))) x_85) (and (and ?v_148 (not x_85)) (= x_76 x_45)))) (or (and (and (and (and ?v_118 ?v_149) ?v_150) (< x_86 x_87)) (< x_87 x_88)) (and (and (and (not ?v_118) (= x_86 x_55)) (= x_87 x_56)) (= x_88 x_57)))) (or (or (and (and (and (and (and (and (or (and (and (and (and (and (and (and (and (and (and ?v_144 ?v_157) ?v_179) ?v_158) ?v_159) (= x_36 (ite ?v_153 (ite (not (< x_50 3)) 3 x_50) x_8))) (= x_31 ?v_160)) (= x_32 ?v_162)) (= x_30 ?v_164)) ?v_191) ?v_166) (and (and (and (and (and (and (and (and (and (and ?v_144 (not ?v_157)) x_40) (= x_27 x_11)) ?v_158) ?v_159) (= x_36 (ite ?v_153 (ite (not (< x_51 3)) 3 x_51) x_8))) (= x_31 (or ?v_160 ?v_161))) (= x_32 (or ?v_162 ?v_163))) (= x_30 (or ?v_164 ?v_165))) ?v_166)) ?v_189) ?v_190) ?v_210) ?v_192) ?v_193) ?v_194) (and (and (and (and (and (and (and (or (and (and (and (and (and (and (and (and (and (and (and ?v_145 (or (or (and (and (and ?v_167 ?v_151) ?v_168) ?v_175) (and (and (and ?v_169 ?v_152) ?v_170) ?v_177)) (and (and ?v_153 ?v_172) ?v_178))) ?v_173) (or (or (or (or ?v_174 ?v_183) x_13) x_3) (not (< x_27 x_21)))) (or (or (or (or ?v_176 ?v_184) x_14) x_4) (not (< x_27 x_22)))) (or (or (or ?v_185 x_15) x_5) (not (< x_27 x_24)))) (or (or (or (and (and (and (and ?v_168 ?v_151) ?v_175) ?v_196) ?v_197) (and (and (and (and ?v_170 ?v_152) ?v_177) ?v_199) ?v_200)) (and (and (and (and ?v_172 ?v_153) ?v_178) ?v_202) ?v_203)) (and (< x_0 ?v_186) ?v_179))) (= x_42 (or x_13 ?v_180))) (= x_43 (or x_14 ?v_181))) (= x_41 (or x_15 ?v_182))) ?v_187) ?v_188) (and (and (and (and (and (and (and (and (and ?v_145 (or (or (or ?v_174 x_13) x_3) ?v_183)) (or (or (or ?v_176 x_14) x_4) ?v_184)) (or (or x_15 x_5) ?v_185)) x_44) (= x_27 ?v_186)) ?v_187) ?v_188) ?v_189) ?v_190)) ?v_208) ?v_209) ?v_166) ?v_191) ?v_192) ?v_193) ?v_194)) (and (and (and (and (and (and (and (or (and (and (and (and (and (and (and (and (and (and (and ?v_204 ?v_205) (not x_28)) (or (or (or ?v_174 x_17) x_3) (<= x_27 x_21))) (or (or (or ?v_176 x_18) x_4) (<= x_27 x_22))) (or (or x_19 x_5) (<= x_27 x_24))) (or (or (or (and (and (and (and ?v_195 ?v_151) (< x_9 x_21)) ?v_196) ?v_197) (and (and (and (and ?v_198 ?v_152) (< x_9 x_22)) ?v_199) ?v_200)) (and (and (and ?v_201 ?v_153) ?v_202) ?v_203)) ?v_179)) (= x_34 (or x_17 (= x_21 x_27)))) (= x_35 (or x_18 (= x_22 x_27)))) (= x_33 (or x_19 (= x_24 x_27)))) ?v_206) ?v_207) (and (and (and (and (and (and (and ?v_204 (not ?v_205)) x_28) ?v_206) ?v_207) (= x_27 x_9)) ?v_192) ?v_193)) ?v_208) ?v_209) ?v_166) ?v_191) ?v_189) ?v_190) ?v_210))) (or (or (and ?v_211 (= x_29 (ite ?v_212 x_20 1))) (and ?v_213 (= x_29 (ite (not x_12) x_20 2)))) (and (and (not ?v_211) (not ?v_213)) (= x_29 x_20)))) (or (and (and ?v_214 (not (<= x_45 x_52))) (not (<= x_52 ?v_215))) (and ?v_216 (= x_52 x_21)))) (or (and (and ?v_214 (not (<= x_45 x_53))) (not (<= x_53 ?v_215))) (and ?v_216 (= x_53 x_22)))) (or (and (and ?v_214 (= x_45 (+ x_0 x_10))) x_54) (and (and ?v_216 (not x_54)) (= x_45 x_0)))) (or (and (and (and (and ?v_182 ?v_217) ?v_218) (< x_55 x_56)) (< x_56 x_57)) (and (and (and (not ?v_182) (= x_55 x_24)) (= x_56 x_25)) (= x_57 x_26)))) (or (or (or (and x_102 (or (< x_99 1) (< x_100 1))) (and x_71 (or (< x_68 1) (< x_69 1)))) (and x_40 (or (< x_37 1) (< x_38 1)))) (and x_2 (or (< x_6 1) (< x_7 1)))))))))))))))))))))))))))))
(check-sat)
(exit)
